src/fuel_planner/utils/lkh_tsp_solver/resource/single.tsp
NAME : single
TYPE : ATSP
DIMENSION : 8
EDGE_WEIGHT_TYPE : EXPLICIT
EDGE_WEIGHT_FORMAT : FULL_MATRIX
EDGE_WEIGHT_SECTION
0 388 548 407 313 146 358 123 
0 0 87 510 462 381 31 434 
0 87 0 607 539 517 118 523 
0 493 594 0 69 279 468 317 
0 421 524 69 0 215 391 279 
0 381 529 309 219 0 353 56 
0 31 118 476 402 336 0 379 
0 419 536 350 274 56 391 0 
EOF