src/fuel_planner/utils/lkh_tsp_solver/resource/single.txt
NAME : single.1053.tour
COMMENT : Length = 1053
COMMENT : Found by LKH [Keld Helsgaun] Thu May 23 15:42:02 2024
TYPE : TOUR
DIMENSION : 8
TOUR_SECTION
1
8
6
5
4
7
2
3
-1
EOF
